NAME : tutorial-01-uncapacitated
COMMENT : Geoffrey De Smet - OptaPlanner VRP demo 01
TYPE : CVRP
DIMENSION : 8
EDGE_WEIGHT_TYPE : EUC_2D 
CAPACITY : 100
NODE_COORD_SECTION 
 1 50 50
 2 45 100
 3 30 80
 4 70 85
 5 60 60
 6 35 10
 7 30 30
 8 45 20
DEMAND_SECTION
1 0
2 1
3 1
4 1
5 1
6 1
7 1
8 1
DEPOT_SECTION
 1  
 -1  
VEHICLES : 2
EOF
